gen	cost
1	20407
2	20211
3	19984
4	19856
5	19790
6	19790
7	19685
8	19644
9	19601
10	19564
11	19428
12	19363
13	19229
14	19024
15	18972
16	18930
17	18835
18	18763
19	18702
20	18670
21	18655
22	18571
23	18522
24	18516
25	18486
26	18462
27	18321
28	18311
29	18193
30	18140
31	18133
32	18124
33	18082
34	18005
35	17932
36	17932
37	17880
38	17879
39	17862
40	17812
41	17744
42	17558
43	17465
44	17443
45	17376
46	17317
47	17285
48	17285
49	17188
50	17129

